133
0 33 11 30 111 77 23 112 92 70 
21 39 90 113 1 3 99 34 74 115 
119 8 56 35 28 102 17 58 71 131 
38 79 128 73 83 87 68 37 15 107 
12 5 118 76 6 53 86 18 22 2 
97 64 106 84 4 96 26 14 98 7 
104 50 122 95 55 72 54 36 91 13 
29 121 57 81 51 89 78 130 19 62 
46 52 126 116 127 132 117 32 103 125 
109 40 63 44 61 114 10 9 66 124 
25 48 24 110 27 65 20 100 31 45 
120 75 60 129 59 82 85 108 67 69 
105 16 80 49 93 41 88 43 94 47 
42 123 101 
